certificates/rado_a7_c262_N37.cnf
c Rad2 upper bound instance: x1 + 7*x2 - x3 = 262, interval [1,37]
p cnf 37 200
1 4 37 0
-1 -4 -37 0
2 5 37 0
-2 -5 -37 0
3 6 37 0
-3 -6 -37 0
4 7 37 0
-4 -7 -37 0
5 8 37 0
-5 -8 -37 0
6 9 37 0
-6 -9 -37 0
7 10 37 0
-7 -10 -37 0
1 11 36 0
-1 -11 -36 0
8 11 37 0
-8 -11 -37 0
2 12 36 0
-2 -12 -36 0
9 12 37 0
-9 -12 -37 0
3 13 36 0
-3 -13 -36 0
10 13 37 0
-10 -13 -37 0
4 14 36 0
-4 -14 -36 0
11 14 37 0
-11 -14 -37 0
5 15 36 0
-5 -15 -36 0
12 15 37 0
-12 -15 -37 0
6 16 36 0
-6 -16 -36 0
13 16 37 0
-13 -16 -37 0
7 17 36 0
-7 -17 -36 0
14 17 37 0
-14 -17 -37 0
1 18 35 0
-1 -18 -35 0
8 18 36 0
-8 -18 -36 0
15 18 37 0
-15 -18 -37 0
2 19 35 0
-2 -19 -35 0
9 19 36 0
-9 -19 -36 0
16 19 37 0
-16 -19 -37 0
3 20 35 0
-3 -20 -35 0
10 20 36 0
-10 -20 -36 0
17 20 37 0
-17 -20 -37 0
4 21 35 0
-4 -21 -35 0
11 21 36 0
-11 -21 -36 0
18 21 37 0
-18 -21 -37 0
5 22 35 0
-5 -22 -35 0
12 22 36 0
-12 -22 -36 0
19 22 37 0
-19 -22 -37 0
6 23 35 0
-6 -23 -35 0
13 23 36 0
-13 -23 -36 0
20 23 37 0
-20 -23 -37 0
7 24 35 0
-7 -24 -35 0
14 24 36 0
-14 -24 -36 0
21 24 37 0
-21 -24 -37 0
1 25 34 0
-1 -25 -34 0
8 25 35 0
-8 -25 -35 0
15 25 36 0
-15 -25 -36 0
22 25 37 0
-22 -25 -37 0
2 26 34 0
-2 -26 -34 0
9 26 35 0
-9 -26 -35 0
16 26 36 0
-16 -26 -36 0
23 26 37 0
-23 -26 -37 0
3 27 34 0
-3 -27 -34 0
10 27 35 0
-10 -27 -35 0
17 27 36 0
-17 -27 -36 0
24 27 37 0
-24 -27 -37 0
4 28 34 0
-4 -28 -34 0
11 28 35 0
-11 -28 -35 0
18 28 36 0
-18 -28 -36 0
25 28 37 0
-25 -28 -37 0
5 29 34 0
-5 -29 -34 0
12 29 35 0
-12 -29 -35 0
19 29 36 0
-19 -29 -36 0
26 29 37 0
-26 -29 -37 0
6 30 34 0
-6 -30 -34 0
13 30 35 0
-13 -30 -35 0
20 30 36 0
-20 -30 -36 0
27 30 37 0
-27 -30 -37 0
7 31 34 0
-7 -31 -34 0
14 31 35 0
-14 -31 -35 0
21 31 36 0
-21 -31 -36 0
28 31 37 0
-28 -31 -37 0
1 32 33 0
-1 -32 -33 0
8 32 34 0
-8 -32 -34 0
15 32 35 0
-15 -32 -35 0
22 32 36 0
-22 -32 -36 0
29 32 37 0
-29 -32 -37 0
2 33 0
-2 -33 0
9 33 34 0
-9 -33 -34 0
16 33 35 0
-16 -33 -35 0
23 33 36 0
-23 -33 -36 0
30 33 37 0
-30 -33 -37 0
3 33 34 0
-3 -33 -34 0
10 34 0
-10 -34 0
17 34 35 0
-17 -34 -35 0
24 34 36 0
-24 -34 -36 0
31 34 37 0
-31 -34 -37 0
4 33 35 0
-4 -33 -35 0
11 34 35 0
-11 -34 -35 0
18 35 0
-18 -35 0
25 35 36 0
-25 -35 -36 0
32 35 37 0
-32 -35 -37 0
5 33 36 0
-5 -33 -36 0
12 34 36 0
-12 -34 -36 0
19 35 36 0
-19 -35 -36 0
26 36 0
-26 -36 0
33 36 37 0
-33 -36 -37 0
6 33 37 0
-6 -33 -37 0
13 34 37 0
-13 -34 -37 0
20 35 37 0
-20 -35 -37 0
27 36 37 0
-27 -36 -37 0
34 37 0
-34 -37 0
