certificates/rado_a7_c262_N37.drat
-36 -37 0
-10 -37 0
d -10 -13 -37 0
-37 0
34 0
-10 0
7 0
13 0
-31 0
28 0
-4 0
1 0
-25 0
22 0
36 0
-26 0
-11 0
-3 0
-24 0
-12 0
-17 0
-23 0
-18 0
-32 0
0
